 200 90 
 68 90 59 81 73 20 88 84 40 37 60 69 
 5 95 97 68 55 54 23 87 17 76 21 81 
 44 48 99 60 17 7 64 37 60 56 91 44 
 63 65 72 10 49 27 83 59 47 31 45 66 
 97 71 71 96 1 77 86 26 39 42 25 2 
 96 62 43 4 41 54 30 58 37 4 36 37 
 64 49 72 31 87 82 65 45 4 85 79 22 
 41 76 38 61 96 79 
 49 
 1 3 7 9 10 11 12 14 15 20 21 23 
 25 26 29 32 33 34 36 38 39 40 41 42 
 43 44 45 46 49 51 55 56 58 59 62 64 
 65 66 67 72 74 78 79 80 81 84 87 88 
 89 
 6 
 17 19 29 33 67 89 
 53 
 2 4 5 6 7 10 11 12 13 14 15 17 
 18 19 20 22 24 26 28 29 30 33 34 36 
 38 40 41 45 46 48 50 51 53 55 56 59 
 60 61 62 63 64 65 66 75 79 80 81 82 
 84 85 87 88 90 
 48 
 2 5 7 8 10 12 13 14 17 18 20 22 
 24 28 29 30 31 35 36 40 41 42 43 44 
 45 47 48 49 50 51 55 59 61 62 63 64 
 65 66 67 68 79 80 81 82 84 86 89 90 
 77 
 1 2 3 4 5 6 7 8 9 11 12 13 
 14 15 16 17 18 19 20 21 22 24 25 26 
 27 28 29 30 31 32 33 34 35 36 39 41 
 42 43 45 47 49 53 54 55 57 58 59 60 
 61 62 63 64 65 66 67 68 69 70 71 72 
 73 74 76 77 78 79 80 81 82 83 84 85 
 86 87 88 89 90 
 42 
 3 4 5 11 14 15 21 22 23 24 26 27 
 28 29 37 39 41 48 50 52 53 54 55 58 
 60 61 63 66 67 69 72 74 75 76 79 80 
 81 84 86 88 89 90 
 44 
 6 8 10 12 13 17 18 20 23 25 26 27 
 29 32 34 35 36 37 38 41 43 45 46 47 
 48 50 53 54 61 62 63 64 66 67 72 73 
 74 78 80 81 82 86 88 90 
 51 
 1 2 4 8 9 12 13 15 16 17 19 27 
 28 30 32 33 34 37 39 41 42 43 44 48 
 52 53 54 55 61 62 63 64 66 67 68 69 
 70 71 73 75 76 78 80 81 84 85 86 87 
 88 89 90 
 34 
 1 3 5 7 9 11 12 13 17 22 23 25 
 28 32 36 39 40 42 44 45 47 51 55 58 
 60 64 70 73 80 81 83 85 88 90 
 38 
 1 2 5 6 8 9 10 16 20 22 23 24 
 27 28 29 30 33 36 38 39 41 44 45 47 
 52 54 55 56 61 62 66 69 73 78 79 82 
 83 87 
 82 
 1 2 3 4 5 7 9 10 11 12 13 14 
 15 16 17 18 19 20 21 22 23 25 26 27 
 28 29 30 31 32 33 35 36 37 38 39 40 
 41 42 44 45 46 47 48 49 50 51 53 54 
 55 56 57 58 59 60 61 62 63 65 66 67 
 68 69 70 71 72 73 74 75 76 77 78 79 
 80 81 82 83 84 85 86 88 89 90 
 35 
 2 3 7 8 9 12 13 14 16 20 22 26 
 28 29 30 34 44 46 51 52 53 54 55 60 
 63 64 65 69 71 74 77 78 83 86 90 
 53 
 1 3 6 10 13 14 15 17 18 19 20 22 
 23 24 25 26 27 28 29 31 32 34 36 38 
 39 40 44 47 49 50 51 52 57 58 59 61 
 65 66 67 68 69 70 71 73 76 78 79 80 
 81 83 85 88 89 
 44 
 6 7 8 9 11 12 14 16 22 27 28 30 
 32 33 34 39 41 42 43 46 51 52 53 55 
 56 57 58 60 61 63 64 68 69 70 72 73 
 74 76 77 79 81 83 84 86 
 85 
 1 2 3 4 5 6 7 8 9 10 11 13 
 14 15 16 17 18 19 20 21 22 23 24 25 
 26 27 28 29 31 32 33 34 35 36 37 38 
 39 41 42 43 44 45 46 47 48 49 50 51 
 52 53 54 55 56 57 58 59 60 62 63 64 
 65 66 67 68 69 70 71 72 73 74 75 76 
 77 78 79 80 81 82 83 84 85 87 88 89 
 90 
 76 
 1 2 3 4 5 6 7 8 9 10 12 13 
 14 15 16 17 19 21 22 23 24 25 26 27 
 28 29 30 31 32 33 34 35 36 38 39 40 
 42 43 45 46 47 48 49 50 53 54 55 56 
 57 58 59 60 61 62 64 65 66 67 68 69 
 70 71 72 73 74 75 76 77 78 79 81 83 
 84 86 88 90 
 35 
 1 2 6 9 11 13 20 21 23 24 25 26 
 27 32 41 46 49 50 51 52 53 54 55 58 
 60 61 63 66 79 80 81 82 85 86 90 
 30 
 4 6 7 8 13 16 18 20 32 33 35 39 
 48 50 53 54 56 57 59 64 72 74 77 79 
 80 81 82 83 86 89 
 60 
 1 2 3 6 9 10 11 13 14 15 16 17 
 18 19 20 21 22 24 26 27 29 30 31 33 
 36 38 41 42 44 45 47 48 49 50 51 52 
 54 55 56 57 58 60 61 62 64 65 66 67 
 69 72 74 79 80 81 82 83 84 85 86 88 
 84 
 1 2 3 4 5 6 7 8 9 10 11 12 
 13 14 15 16 17 18 19 20 21 22 23 24 
 25 26 27 28 29 30 31 32 33 34 35 36 
 37 38 39 40 41 42 43 44 45 46 47 49 
 50 51 53 54 55 56 58 59 61 62 64 65 
 66 67 69 70 71 72 73 74 75 76 77 78 
 79 80 81 82 83 84 85 86 87 88 89 90 
 70 
 2 3 4 5 6 8 10 11 12 13 15 16 
 17 18 19 20 21 22 24 25 26 27 28 29 
 30 31 33 34 35 36 37 40 41 43 45 46 
 47 49 50 51 52 53 54 55 56 58 60 61 
 62 63 64 65 66 67 69 70 72 73 76 77 
 78 79 80 81 83 84 85 87 88 89 
 15 
 12 13 38 44 50 56 58 60 61 63 71 72 
 74 79 81 
 60 
 1 2 3 4 5 7 8 10 11 12 13 14 
 16 17 18 19 25 26 27 28 29 30 31 33 
 34 35 37 41 42 43 44 46 47 48 49 51 
 52 53 54 57 59 62 63 65 68 69 70 73 
 74 77 78 80 81 82 83 84 85 87 88 90 
 28 
 1 5 7 15 18 20 26 31 32 33 38 43 
 44 46 48 55 56 60 65 66 68 74 76 81 
 83 85 86 90 
 81 
 1 2 3 4 5 6 7 8 9 10 12 13 
 14 15 16 17 18 19 20 21 23 24 25 26 
 27 28 29 30 31 32 33 34 35 36 37 38 
 39 40 41 42 44 45 47 48 49 50 51 52 
 53 54 55 56 57 58 59 60 61 62 64 65 
 66 67 69 70 71 72 73 74 75 76 77 78 
 79 80 81 82 83 84 86 87 90 
 77 
 1 2 3 4 5 6 7 9 10 11 12 13 
 14 15 16 17 18 19 20 21 22 23 24 26 
 27 28 29 30 31 32 35 36 37 38 39 40 
 42 43 44 45 46 47 48 49 51 52 53 55 
 56 58 59 60 61 62 63 64 66 67 69 70 
 71 72 73 74 75 76 78 79 80 81 82 83 
 84 85 86 89 90 
 34 
 4 5 8 12 13 18 19 21 22 23 25 28 
 31 32 36 37 41 49 50 51 53 56 57 58 
 64 65 69 72 73 81 82 84 86 90 
 63 
 1 2 4 5 6 7 8 9 10 11 12 13 
 14 17 19 20 21 22 23 25 26 27 28 29 
 30 32 34 36 38 39 40 41 42 43 45 46 
 47 49 53 54 56 57 58 60 63 65 66 67 
 68 69 72 74 75 76 77 79 80 81 85 86 
 87 88 89 
 4 
 17 51 63 84 
 9 
 3 4 32 39 40 48 49 65 77 
 46 
 1 3 7 8 18 19 21 22 23 24 26 27 
 30 31 32 33 35 36 37 39 41 43 44 45 
 47 49 50 51 52 55 63 65 66 69 72 75 
 76 78 79 80 81 82 85 87 88 90 
 2 
 56 76 
 88 
 1 2 3 4 5 6 7 8 9 10 11 12 
 13 14 15 16 17 18 19 20 21 22 23 24 
 25 26 27 28 29 30 31 32 33 34 35 36 
 37 38 39 40 41 42 43 44 45 46 47 48 
 49 50 51 52 53 54 55 56 57 58 59 60 
 61 63 64 65 66 67 68 69 70 71 72 73 
 74 75 76 77 79 80 81 82 83 84 85 86 
 87 88 89 90 
 5 
 22 30 37 54 56 
 38 
 1 4 5 10 11 13 14 15 16 17 18 20 
 22 25 29 30 35 42 44 47 48 49 50 51 
 54 58 59 62 63 64 65 66 69 70 71 72 
 76 79 
 56 
 2 3 4 5 6 7 8 10 14 16 18 19 
 21 24 25 27 28 29 30 32 33 34 35 36 
 37 38 39 40 41 42 43 46 48 49 52 54 
 57 59 61 63 64 66 68 70 72 74 75 76 
 78 79 84 85 86 87 88 90 
 44 
 1 4 6 8 9 11 18 20 21 23 24 25 
 27 30 32 34 37 38 39 40 41 46 49 50 
 53 57 59 60 61 62 63 64 65 72 74 76 
 77 79 80 83 85 87 88 90 
 73 
 1 3 4 6 7 8 9 10 12 14 15 16 
 18 19 20 21 22 23 24 25 27 28 29 30 
 31 32 33 35 37 38 39 40 41 42 43 44 
 46 48 49 51 52 53 54 55 56 57 58 59 
 60 61 62 63 64 65 67 68 69 70 71 72 
 73 74 75 76 78 79 80 81 85 87 88 89 
 90 
 5 
 18 34 60 64 70 
 19 
 2 3 11 22 26 30 38 39 41 44 53 54 
 55 56 58 60 71 77 80 
 34 
 3 12 15 16 19 22 25 27 30 34 39 40 
 41 43 44 47 48 51 52 59 60 62 64 65 
 66 68 71 77 81 82 85 87 88 89 
 53 
 4 5 6 7 8 9 10 11 12 14 15 18 
 19 22 24 25 26 29 31 32 34 37 38 39 
 40 42 45 50 51 52 53 54 55 56 57 58 
 59 60 62 64 65 68 71 72 74 75 76 80 
 82 84 87 88 90 
 50 
 1 2 3 5 10 12 14 16 17 18 19 22 
 23 24 26 27 28 31 32 33 36 37 40 41 
 42 43 44 46 47 49 50 51 53 56 57 58 
 59 61 62 64 68 70 74 76 84 85 86 87 
 88 89 
 87 
 1 2 3 4 5 6 7 8 9 10 11 12 
 13 14 15 16 17 18 19 20 21 22 23 24 
 25 26 27 28 29 30 31 32 33 34 35 36 
 37 38 39 40 41 42 43 44 45 46 47 48 
 49 50 51 53 54 55 56 57 58 59 60 61 
 62 63 64 65 66 67 69 70 71 73 74 75 
 76 77 78 79 80 81 82 83 84 85 86 87 
 88 89 90 
 31 
 1 2 8 9 13 17 23 25 27 34 36 42 
 43 46 47 50 53 56 60 66 68 72 73 74 
 75 78 80 82 85 86 88 
 2 
 3 36 
 87 
 1 2 3 4 5 6 7 8 9 10 11 12 
 13 14 15 16 17 19 20 21 22 23 24 25 
 26 27 28 29 30 31 32 33 34 35 36 37 
 38 39 40 41 42 43 44 46 47 48 49 51 
 52 53 54 55 56 57 58 59 60 61 62 63 
 64 65 66 67 68 69 70 71 72 73 74 75 
 76 77 78 79 80 81 82 83 84 85 86 87 
 88 89 90 
 62 
 1 3 5 7 10 11 12 13 15 16 17 19 
 20 21 23 24 25 26 27 28 29 30 31 32 
 33 35 37 40 41 42 43 44 45 46 48 50 
 52 54 55 57 58 60 61 63 65 66 68 69 
 70 71 73 74 76 78 80 81 82 84 86 88 
 89 90 
 4 
 33 37 84 90 
 41 
 6 7 9 10 11 18 19 20 23 24 25 28 
 29 30 32 34 36 37 38 41 42 43 47 48 
 49 57 58 59 61 62 65 69 70 71 72 75 
 77 79 84 88 89 
 81 
 1 2 3 4 6 9 10 11 12 13 14 15 
 16 17 18 19 21 22 23 24 25 26 27 28 
 29 30 31 32 33 34 35 36 37 38 39 40 
 41 42 43 44 45 46 47 49 50 51 53 54 
 55 56 57 58 59 60 61 62 63 64 65 66 
 67 68 70 71 72 73 74 75 76 77 78 79 
 80 81 82 83 84 86 87 88 90 
 71 
 1 2 3 4 5 6 7 8 9 10 12 13 
 14 16 17 18 19 21 22 23 25 26 28 29 
 30 31 32 34 35 36 40 41 42 43 44 45 
 46 48 49 50 51 52 53 54 56 59 60 61 
 64 65 66 67 68 70 71 72 73 74 75 76 
 77 79 80 81 82 83 84 85 88 89 90 
 49 
 1 3 4 5 6 7 8 10 12 13 15 16 
 17 19 21 22 23 26 27 31 35 36 38 39 
 43 44 45 48 50 51 52 54 55 56 59 62 
 64 66 67 69 70 72 79 81 83 84 85 86 
 89 
 38 
 1 2 5 12 14 20 22 23 26 29 34 36 
 45 48 51 53 55 56 57 58 59 65 66 67 
 68 69 72 73 74 75 78 79 80 82 84 85 
 88 89 
 24 
 8 13 23 26 34 37 41 42 43 48 49 51 
 57 59 60 63 64 65 68 78 79 83 85 87 
 6 
 41 72 75 84 87 90 
 4 
 32 34 46 79 
 20 
 12 30 35 36 37 42 43 46 47 50 57 61 
 64 67 68 69 73 82 83 85 
 11 
 2 5 21 23 34 42 47 54 80 85 90 
 80 
 1 2 3 4 5 6 7 8 9 10 11 12 
 13 14 15 16 17 18 20 21 22 23 24 25 
 26 27 28 29 31 32 33 34 35 36 37 38 
 39 40 41 42 43 44 45 46 47 48 49 50 
 51 54 55 56 57 58 60 61 62 63 64 67 
 68 69 70 71 73 74 75 76 77 78 81 82 
 83 84 85 86 87 88 89 90 
 66 
 1 4 5 6 7 8 9 13 14 15 16 17 
 19 20 21 23 26 27 28 32 33 34 36 37 
 38 39 40 41 43 44 45 46 47 48 49 52 
 53 55 56 57 58 59 60 61 62 63 65 66 
 67 68 69 73 76 77 78 79 80 81 82 83 
 84 86 87 88 89 90 
 29 
 1 3 4 8 13 14 16 19 22 24 30 33 
 36 38 40 46 50 51 54 55 56 67 71 72 
 74 77 80 88 89 
 25 
 1 5 8 13 14 16 27 28 29 37 38 44 
 47 48 52 53 56 63 64 66 70 73 84 85 
 89 
 10 
 17 23 25 42 47 62 65 67 83 89 
 86 
 1 2 3 4 5 6 7 8 9 10 11 12 
 13 14 15 16 17 18 19 20 21 22 23 24 
 25 26 27 28 29 30 32 33 34 35 36 37 
 38 39 40 41 42 43 44 45 46 47 48 49 
 50 51 52 53 54 56 57 58 59 60 61 62 
 63 64 65 66 67 68 69 70 71 72 73 74 
 75 76 78 80 81 82 83 84 85 86 87 88 
 89 90 
 77 
 1 2 3 5 6 7 8 10 11 12 13 14 
 15 18 19 20 21 22 23 24 25 26 27 28 
 29 30 31 32 33 34 36 37 38 40 41 42 
 43 44 45 46 47 48 49 50 51 52 53 54 
 55 56 58 59 60 62 63 64 65 66 67 69 
 70 71 72 73 74 75 76 78 79 82 84 85 
 86 87 88 89 90 
 37 
 2 3 7 9 15 16 17 19 21 22 23 26 
 27 33 34 35 36 37 42 47 49 50 53 60 
 62 63 71 75 76 77 83 84 85 86 87 88 
 89 
 88 
 1 2 3 4 5 6 7 8 9 10 11 12 
 13 14 15 16 17 18 20 21 22 23 24 25 
 26 27 28 29 30 31 32 33 34 35 36 37 
 38 39 40 41 42 43 45 46 47 48 49 50 
 51 52 53 54 55 56 57 58 59 60 61 62 
 63 64 65 66 67 68 69 70 71 72 73 74 
 75 76 77 78 79 80 81 82 83 84 85 86 
 87 88 89 90 
 55 
 1 2 5 6 7 8 10 11 13 14 17 18 
 19 24 25 26 28 30 31 40 42 43 44 46 
 47 48 49 50 51 52 53 54 55 56 58 59 
 60 61 62 64 68 69 70 73 74 75 76 79 
 80 81 84 85 87 88 89 
 16 
 10 12 16 18 26 27 37 41 48 59 64 67 
 68 73 79 80 
 17 
 2 12 18 21 22 23 24 28 34 37 41 48 
 61 70 71 75 76 
 24 
 1 5 11 17 18 19 29 30 37 39 44 46 
 48 54 55 57 67 73 76 77 81 85 88 90 
 24 
 2 7 8 9 15 17 23 24 27 33 39 44 
 48 60 61 62 68 72 74 79 81 85 88 90 
 82 
 1 2 3 4 5 6 7 8 9 10 12 13 
 15 16 17 18 19 21 22 23 24 25 26 27 
 28 29 30 31 33 34 35 36 37 39 40 41 
 42 43 44 45 46 47 48 49 50 51 52 53 
 55 56 57 58 59 60 61 62 63 64 65 66 
 67 68 69 70 71 72 73 74 75 76 77 78 
 79 80 81 82 83 84 85 87 88 90 
 47 
 2 4 6 8 9 11 12 14 17 19 20 21 
 22 25 27 31 33 38 39 40 41 42 43 44 
 45 46 47 51 53 54 56 58 59 60 61 63 
 66 69 72 77 78 79 81 83 85 87 90 
 79 
 1 2 3 4 5 6 7 9 10 11 12 13 
 14 15 16 17 18 19 20 21 22 23 24 26 
 27 28 29 31 32 33 35 36 37 38 39 40 
 41 42 43 44 45 46 47 48 49 50 51 53 
 54 55 57 58 59 60 61 62 63 64 65 66 
 68 69 70 71 73 74 76 77 79 80 81 82 
 83 84 85 86 87 89 90 
 62 
 1 2 3 4 5 6 7 8 9 11 12 13 
 19 20 21 22 23 24 25 27 30 32 33 34 
 35 36 37 38 39 40 41 42 44 45 46 47 
 48 50 51 52 53 57 58 59 60 61 63 64 
 65 72 73 75 76 77 78 79 81 82 85 86 
 87 88 
 2 
 42 84 
 2 
 63 77 
 7 
 16 28 37 49 52 69 89 
 21 
 7 11 12 17 20 32 38 43 45 48 49 52 
 53 62 63 65 76 78 81 87 88 
 26 
 5 11 12 20 22 24 25 27 30 31 39 40 
 47 54 58 61 64 67 69 70 75 78 79 81 
 83 86 
 55 
 2 3 4 6 7 8 11 13 14 16 17 18 
 19 21 22 23 25 26 27 28 29 34 36 38 
 39 42 44 45 46 47 49 52 54 55 58 60 
 62 64 65 67 68 71 72 74 76 77 78 79 
 80 81 82 83 84 87 88 
 58 
 1 3 5 7 11 12 13 20 23 24 25 27 
 28 29 30 31 34 35 36 37 39 40 41 42 
 43 44 45 46 47 49 50 51 55 56 57 58 
 59 60 61 63 67 68 70 71 73 74 76 78 
 79 80 81 82 83 84 85 86 89 90 
 80 
 1 2 3 4 5 6 7 8 10 11 12 13 
 14 15 16 17 18 19 20 21 22 23 24 25 
 26 27 28 29 30 31 32 33 34 35 36 39 
 41 42 44 45 46 47 48 49 50 52 53 54 
 55 56 57 59 60 61 62 63 64 65 66 67 
 68 69 70 71 72 75 76 77 79 80 81 82 
 83 84 85 86 87 88 89 90 
 21 
 2 4 11 14 16 20 26 27 32 40 46 48 
 52 53 61 66 76 77 80 81 85 
 24 
 5 9 15 16 23 24 30 33 44 47 52 53 
 56 57 61 67 69 70 72 75 77 82 84 89 
 14 
 2 13 28 33 35 36 39 53 62 69 70 74 
 87 88 
 80 
 2 3 5 6 8 9 10 11 12 13 14 15 
 16 17 18 19 20 21 22 23 25 26 27 28 
 29 30 31 32 33 34 35 36 37 39 40 41 
 42 43 44 45 46 47 49 50 51 53 54 55 
 56 57 59 60 61 62 63 64 65 67 68 69 
 70 71 72 73 75 76 77 78 79 80 81 82 
 83 84 85 86 87 88 89 90 
 31 
 2 4 7 10 12 13 15 17 26 27 33 37 
 38 39 41 42 49 52 54 56 57 59 66 67 
 72 74 75 77 82 87 90 
 60 
 1 2 3 4 5 8 9 10 12 13 14 15 
 18 19 22 23 25 26 27 29 30 31 33 34 
 35 36 38 40 41 42 43 45 46 47 51 53 
 54 55 56 58 59 62 63 64 66 68 69 70 
 71 73 75 76 78 82 83 84 87 88 89 90 
 73 
 1 3 4 5 6 9 10 11 12 14 15 16 
 17 18 21 22 23 24 26 27 28 29 31 32 
 33 34 35 36 37 38 39 41 44 45 46 47 
 48 49 51 52 53 54 55 56 57 58 59 61 
 62 63 64 66 67 68 69 70 71 72 73 74 
 75 76 77 78 80 81 82 83 84 85 86 88 
 89 
 64 
 2 3 4 5 6 7 8 9 10 13 14 15 
 16 17 18 20 23 24 25 27 30 31 36 37 
 38 39 40 41 42 43 45 46 47 48 51 52 
 53 54 56 57 58 61 62 65 66 67 68 69 
 70 71 73 74 75 77 79 81 82 83 84 85 
 86 87 88 90 
 80 
 1 2 3 4 5 6 7 8 10 11 12 13 
 14 15 16 17 18 21 22 23 24 25 26 27 
 28 29 30 31 32 33 34 35 36 37 38 39 
 40 42 43 45 46 47 48 49 50 51 52 53 
 54 55 56 57 58 59 60 61 62 63 64 65 
 66 67 68 69 70 71 72 73 74 75 76 77 
 78 80 82 83 84 86 89 90 
 17 
 10 14 15 30 31 37 45 53 58 62 70 71 
 76 77 79 81 84 
 11 
 15 20 25 41 47 54 59 64 80 85 90 
 59 
 1 2 4 6 8 9 10 13 15 16 17 21 
 23 24 25 26 27 28 30 33 34 35 36 39 
 41 42 43 45 47 48 49 51 52 53 54 55 
 56 60 62 63 64 65 66 67 69 70 71 73 
 75 77 79 80 81 83 84 86 87 88 89 
 13 
 1 6 13 18 19 20 23 39 47 48 60 72 
 73 
 80 
 1 2 3 4 5 6 7 8 9 10 11 12 
 13 14 15 16 17 19 20 21 22 23 24 25 
 26 27 28 29 31 32 33 34 35 37 38 39 
 40 42 43 44 45 46 47 48 49 51 52 53 
 54 56 57 58 59 61 64 65 66 67 68 69 
 70 71 72 74 75 76 77 78 79 80 81 82 
 83 84 85 86 87 88 89 90 
 43 
 6 8 11 13 17 19 24 25 29 30 31 36 
 37 38 39 41 42 43 50 54 55 56 58 59 
 60 61 62 63 64 66 70 71 72 73 74 77 
 80 84 86 87 88 89 90 
 89 
 1 2 3 4 5 6 7 8 9 10 11 12 
 13 14 15 16 17 18 19 20 21 22 23 24 
 25 26 27 28 29 30 31 32 33 34 35 36 
 37 38 39 40 41 42 43 44 45 46 47 48 
 49 50 51 52 53 54 55 56 57 58 59 60 
 61 62 63 64 65 66 67 68 69 70 71 72 
 73 74 75 76 77 78 79 80 81 83 84 85 
 86 87 88 89 90 
 42 
 2 3 4 6 7 8 11 12 13 14 15 16 
 19 20 24 25 28 34 35 38 41 46 47 51 
 52 54 56 57 61 64 66 68 69 70 74 76 
 81 82 83 84 86 88 
 7 
 7 42 52 57 61 63 74 
 58 
 3 4 9 10 11 12 15 16 17 18 20 22 
 24 25 26 27 28 29 30 31 33 34 35 37 
 40 41 42 43 46 50 51 52 55 56 58 59 
 62 63 64 65 67 69 70 71 74 75 76 77 
 78 79 80 81 82 84 85 86 88 89 
 77 
 1 2 3 4 5 6 7 8 9 10 11 12 
 13 14 15 16 17 18 21 22 23 24 25 26 
 27 28 29 30 31 32 33 35 36 37 38 39 
 40 41 44 45 46 47 48 50 51 52 54 55 
 57 58 59 60 62 63 64 65 66 69 70 71 
 72 73 74 75 76 77 78 79 80 81 82 83 
 84 86 87 88 90 
 90 
 1 2 3 4 5 6 7 8 9 10 11 12 
 13 14 15 16 17 18 19 20 21 22 23 24 
 25 26 27 28 29 30 31 32 33 34 35 36 
 37 38 39 40 41 42 43 44 45 46 47 48 
 49 50 51 52 53 54 55 56 57 58 59 60 
 61 62 63 64 65 66 67 68 69 70 71 72 
 73 74 75 76 77 78 79 80 81 82 83 84 
 85 86 87 88 89 90 
 80 
 2 3 4 5 6 7 8 9 10 11 12 13 
 14 17 18 19 20 22 24 26 27 28 29 30 
 32 33 34 35 36 37 38 40 41 42 43 44 
 45 46 47 48 49 50 51 52 53 54 55 56 
 57 58 59 60 61 63 64 65 66 67 68 69 
 70 71 72 73 74 75 76 77 78 79 80 81 
 82 83 84 85 87 88 89 90 
 20 
 3 18 21 27 29 31 34 39 40 50 57 59 
 60 62 65 67 68 71 84 85 
 19 
 8 11 13 18 19 23 24 35 39 55 57 61 
 63 67 70 72 80 82 90 
 58 
 1 2 3 5 6 7 9 10 15 16 17 19 
 23 24 25 26 27 28 29 33 34 37 38 39 
 41 44 45 47 48 50 53 54 56 57 58 59 
 60 61 62 63 64 65 66 67 68 70 71 72 
 73 74 78 81 82 85 87 88 89 90 
 81 
 1 2 3 4 5 6 7 8 9 10 11 12 
 13 14 15 16 17 18 19 20 21 22 23 24 
 25 26 27 28 29 31 32 33 34 35 36 37 
 39 40 41 43 45 46 47 49 50 51 52 53 
 54 55 56 57 58 60 61 62 63 64 65 66 
 67 68 69 70 72 73 75 76 77 78 79 80 
 81 82 83 84 85 86 87 88 89 
 64 
 1 3 4 5 7 8 9 10 11 12 13 14 
 15 16 17 18 19 20 22 23 25 27 28 30 
 35 36 37 38 40 41 42 43 44 45 46 47 
 48 49 50 53 54 55 57 60 61 64 65 66 
 67 68 69 70 71 72 74 75 78 80 83 84 
 85 87 89 90 
 3 
 18 22 77 
 8 
 10 13 23 30 32 48 50 53 
 86 
 1 2 3 4 6 7 8 9 10 11 12 13 
 14 15 16 17 18 19 20 21 22 23 24 26 
 27 29 30 31 32 33 34 35 36 37 38 39 
 40 41 42 43 44 45 46 47 48 49 50 51 
 52 53 54 55 56 57 58 59 60 61 62 63 
 64 66 67 68 69 70 71 72 73 74 75 76 
 77 78 79 80 81 82 83 84 85 86 87 88 
 89 90 
 33 
 2 5 9 10 11 14 20 21 24 26 32 35 
 37 39 40 47 48 50 52 53 54 56 59 61 
 63 65 71 72 73 75 79 84 88 
 54 
 2 4 5 7 8 9 12 13 14 15 16 18 
 20 21 23 24 25 27 28 30 31 33 34 37 
 38 39 40 41 43 44 45 47 48 51 55 57 
 58 61 62 64 65 66 68 69 70 71 75 76 
 78 80 81 84 86 90 
 47 
 1 2 6 7 8 10 11 12 14 15 16 19 
 21 22 27 28 29 30 31 33 41 42 43 44 
 47 48 49 50 51 52 55 56 59 60 62 64 
 65 67 69 70 75 81 85 86 87 89 90 
 89 
 1 2 3 4 5 6 7 8 9 10 11 12 
 13 14 15 16 17 18 19 20 21 22 23 24 
 25 26 27 28 29 30 31 32 33 34 35 36 
 37 38 40 41 42 43 44 45 46 47 48 49 
 50 51 52 53 54 55 56 57 58 59 60 61 
 62 63 64 65 66 67 68 69 70 71 72 73 
 74 75 76 77 78 79 80 81 82 83 84 85 
 86 87 88 89 90 
 73 
 1 2 4 5 6 9 10 11 12 13 14 15 
 16 18 19 20 21 22 23 24 25 26 27 28 
 29 30 31 32 33 34 35 37 38 39 40 41 
 42 43 44 45 46 47 48 50 53 54 55 57 
 58 59 60 62 63 67 68 69 71 72 73 74 
 75 77 78 79 80 81 82 83 84 86 87 88 
 89 
 73 
 1 2 3 5 6 7 8 11 12 13 14 15 
 16 17 18 19 20 22 23 25 26 27 28 30 
 31 32 33 34 35 36 37 38 39 40 43 44 
 45 46 48 49 50 51 52 53 57 58 59 60 
 61 62 63 64 65 67 68 69 70 71 75 76 
 77 78 79 80 81 82 83 84 85 86 87 88 
 89 
 32 
 1 11 12 15 19 21 23 24 26 27 32 34 
 35 37 39 40 41 44 47 52 54 62 66 70 
 71 72 73 75 76 84 85 89 
 2 
 15 48 
 51 
 4 5 6 7 8 10 11 12 13 14 15 16 
 19 20 21 22 23 28 29 30 32 33 35 36 
 38 39 40 41 44 46 47 48 56 58 60 61 
 63 64 66 67 71 74 75 77 79 80 81 82 
 84 86 90 
 39 
 1 3 5 10 16 18 19 20 24 25 27 32 
 33 34 35 41 43 45 47 48 49 51 52 54 
 55 56 61 63 66 70 73 74 76 77 79 83 
 84 88 90 
 51 
 1 2 4 6 8 10 15 16 17 20 22 23 
 26 27 28 29 30 32 33 34 35 36 37 43 
 44 46 47 48 51 55 57 58 59 60 62 64 
 65 66 69 71 72 76 77 78 81 82 83 86 
 88 89 90 
 84 
 1 2 3 4 5 7 8 9 10 11 12 13 
 14 15 16 17 18 19 20 21 22 23 24 25 
 27 29 30 31 32 33 34 35 36 37 38 39 
 40 41 42 43 44 45 46 47 49 50 51 52 
 53 54 55 56 57 58 59 60 61 62 63 64 
 65 66 67 68 69 70 72 73 74 75 76 77 
 78 79 81 82 83 84 85 86 87 88 89 90 
 33 
 1 2 6 12 13 14 18 20 23 28 30 38 
 39 40 41 45 51 57 58 59 60 61 63 69 
 72 74 75 78 79 83 87 89 90 
 57 
 1 2 3 4 7 8 10 14 15 16 17 18 
 20 22 23 24 25 26 30 32 33 36 38 40 
 41 42 43 48 49 51 52 53 54 55 56 58 
 60 61 62 65 67 68 69 71 72 73 75 76 
 78 80 81 82 84 85 86 87 90 
 75 
 1 2 3 5 6 7 8 9 12 13 14 17 
 18 19 20 21 22 23 25 26 27 28 29 31 
 32 33 34 36 37 38 39 41 43 44 45 46 
 47 49 50 51 53 54 55 56 57 58 60 61 
 62 63 64 65 66 67 69 70 72 73 74 75 
 76 77 78 79 80 81 82 83 84 85 86 87 
 88 89 90 
 37 
 3 6 7 13 14 15 21 23 24 27 33 38 
 42 43 47 48 52 55 57 58 60 62 63 65 
 67 68 71 72 73 74 75 76 80 82 84 86 
 90 
 39 
 1 4 5 6 9 10 13 16 17 23 24 27 
 29 33 35 37 39 41 43 51 54 57 58 60 
 61 62 63 66 68 70 75 76 77 81 82 83 
 84 87 90 
 77 
 1 2 3 4 5 6 7 8 9 10 11 12 
 13 14 15 16 17 18 19 20 21 22 23 24 
 25 26 27 28 29 31 32 33 34 36 37 38 
 39 40 41 42 43 44 45 47 48 49 50 51 
 52 53 54 55 57 58 59 61 62 64 66 67 
 68 70 71 72 74 75 76 77 78 79 81 82 
 83 84 85 88 89 
 62 
 1 2 5 6 8 9 12 13 14 15 17 18 
 19 22 23 24 25 26 29 31 32 33 34 35 
 37 38 39 41 42 43 44 45 46 47 48 49 
 51 53 55 57 59 60 61 62 63 65 67 69 
 70 72 75 77 79 80 82 83 84 85 86 88 
 89 90 
 54 
 4 5 6 7 8 10 11 14 20 21 23 25 
 26 27 28 29 33 35 37 38 39 40 42 44 
 48 49 50 51 52 53 54 55 56 59 61 64 
 65 66 68 69 70 71 73 74 75 77 78 79 
 81 83 84 86 88 90 
 12 
 4 8 26 29 30 33 43 64 78 86 87 88 
 84 
 1 2 3 4 5 6 7 8 9 10 11 12 
 13 14 15 16 17 18 19 20 21 22 24 26 
 27 28 29 30 31 32 33 34 36 37 38 39 
 40 41 42 43 44 45 46 47 48 49 50 51 
 52 53 54 56 57 58 59 60 61 62 63 64 
 65 67 68 69 70 71 72 73 74 75 76 77 
 78 79 80 81 82 83 85 86 87 88 89 90 
 57 
 4 8 9 10 11 12 14 15 16 17 19 21 
 23 24 25 27 30 32 33 34 35 36 38 39 
 42 43 44 49 51 52 54 55 56 57 58 59 
 60 61 63 64 65 68 70 71 72 73 75 76 
 77 78 79 80 83 85 86 87 88 
 4 
 16 30 59 83 
 63 
 1 2 3 5 7 9 11 13 14 15 19 20 
 21 22 23 25 26 27 28 29 30 31 32 34 
 36 38 39 41 42 44 45 46 47 48 49 51 
 52 54 55 56 57 58 59 60 61 63 65 66 
 68 71 72 73 76 77 79 81 82 83 85 86 
 87 89 90 
 68 
 2 3 4 5 6 7 8 10 11 12 14 16 
 17 19 20 22 24 26 27 28 30 31 32 33 
 34 35 36 38 39 40 41 43 45 46 48 49 
 50 51 53 54 55 56 57 59 60 61 62 63 
 64 65 66 67 68 70 71 72 73 74 75 77 
 78 81 82 83 84 85 88 89 
 89 
 1 2 3 4 5 6 7 8 9 10 11 12 
 13 14 15 16 17 18 19 20 21 22 23 24 
 25 26 27 28 29 30 31 32 33 34 35 36 
 37 38 39 40 41 42 43 44 45 46 47 48 
 49 50 51 52 53 54 55 56 57 58 59 60 
 61 62 63 64 65 66 67 68 70 71 72 73 
 74 75 76 77 78 79 80 81 82 83 84 85 
 86 87 88 89 90 
 41 
 2 5 7 9 12 13 18 19 20 21 22 26 
 28 29 30 37 40 45 46 47 50 52 53 54 
 58 59 60 62 66 67 71 72 74 78 79 80 
 83 84 85 86 87 
 37 
 1 2 3 7 8 10 12 13 18 23 24 25 
 27 34 38 39 41 42 43 45 47 52 54 55 
 59 60 61 62 65 67 68 77 79 81 84 87 
 90 
 87 
 1 2 3 4 5 6 7 8 9 10 11 12 
 13 14 15 16 17 18 19 21 22 23 24 25 
 26 27 28 29 31 32 33 34 35 37 38 39 
 40 41 42 43 44 45 46 47 48 49 50 51 
 52 53 54 55 56 57 58 59 60 61 62 63 
 64 65 66 67 68 69 70 71 72 73 74 75 
 76 77 78 79 80 81 82 83 84 85 86 87 
 88 89 90 
 54 
 5 6 7 9 10 11 16 17 18 19 20 23 
 25 26 28 29 30 32 33 34 35 36 39 40 
 41 42 43 45 46 48 50 53 56 57 59 60 
 61 62 65 66 68 69 72 73 75 76 77 79 
 81 82 84 86 87 89 
 78 
 1 2 3 5 6 7 8 9 10 12 14 15 
 17 18 19 20 22 23 24 25 26 27 28 29 
 30 31 32 33 34 35 36 38 39 40 41 42 
 43 45 46 47 48 49 50 51 52 53 54 55 
 56 57 58 59 60 61 62 63 64 66 67 68 
 70 71 72 73 74 75 76 77 78 80 81 82 
 83 85 86 87 89 90 
 44 
 2 4 6 8 9 11 12 17 19 20 22 26 
 27 29 30 31 32 33 34 41 43 44 45 48 
 49 51 53 54 55 56 58 66 68 69 72 73 
 74 75 80 81 82 86 89 90 
 64 
 1 2 3 4 5 7 8 9 10 11 12 15 
 16 17 19 22 23 24 25 27 32 33 34 35 
 37 38 39 42 44 45 46 47 49 50 53 54 
 55 57 58 59 60 61 62 63 65 67 68 69 
 70 71 73 74 75 76 77 78 79 80 81 82 
 83 84 86 87 
 46 
 2 5 6 9 10 14 16 17 19 22 24 25 
 26 28 30 31 32 34 36 39 42 44 46 48 
 52 54 56 57 58 59 61 63 65 67 71 74 
 77 78 79 83 84 86 87 88 89 90 
 68 
 1 3 4 5 6 7 9 10 14 15 17 20 
 21 23 24 25 26 27 28 29 30 31 32 33 
 35 36 37 39 40 41 43 44 45 46 49 50 
 51 52 54 55 56 58 59 60 61 62 63 64 
 65 67 68 69 71 72 73 74 75 76 79 80 
 81 83 84 85 86 87 89 90 
 79 
 1 2 3 5 6 7 8 9 10 11 12 13 
 14 15 16 18 19 20 21 22 23 24 25 26 
 27 28 29 30 31 32 33 35 36 37 38 39 
 40 41 43 44 45 46 48 49 50 51 52 53 
 54 55 56 57 58 59 60 61 62 63 64 66 
 67 68 69 71 73 74 75 76 79 80 81 82 
 83 85 86 87 88 89 90 
 15 
 4 14 20 29 33 38 42 46 51 53 63 72 
 82 87 88 
 37 
 1 4 5 8 10 11 16 17 18 20 21 22 
 24 27 28 33 37 40 44 45 52 54 58 59 
 61 62 63 65 68 72 73 76 80 81 82 85 
 87 
 89 
 1 2 3 4 5 6 7 8 9 10 11 12 
 13 14 15 17 18 19 20 21 22 23 24 25 
 26 27 28 29 30 31 32 33 34 35 36 37 
 38 39 40 41 42 43 44 45 46 47 48 49 
 50 51 52 53 54 55 56 57 58 59 60 61 
 62 63 64 65 66 67 68 69 70 71 72 73 
 74 75 76 77 78 79 80 81 82 83 84 85 
 86 87 88 89 90 
 81 
 1 2 3 4 5 6 7 8 9 10 11 12 
 13 14 15 16 18 19 20 21 22 24 25 26 
 27 28 29 30 31 32 33 34 35 36 37 38 
 39 40 41 42 43 44 45 47 48 49 50 52 
 53 54 55 56 57 58 59 60 62 63 65 67 
 68 69 70 71 72 73 74 76 77 78 79 80 
 81 82 83 84 85 86 87 89 90 
 23 
 1 8 10 11 14 20 21 27 29 34 35 37 
 40 41 44 49 55 64 73 74 75 84 85 
 68 
 1 2 3 4 5 6 7 8 9 11 12 13 
 14 15 16 17 18 23 24 25 26 27 28 29 
 30 31 32 33 34 36 37 39 41 43 44 45 
 46 49 51 52 55 56 57 58 60 61 62 64 
 65 66 67 69 70 71 72 74 77 78 79 80 
 81 82 83 84 86 87 89 90 
 89 
 1 2 3 4 5 6 7 8 9 10 11 12 
 13 14 15 16 17 18 19 20 21 22 23 24 
 25 26 27 28 29 30 31 32 33 34 35 36 
 37 38 39 40 41 42 43 44 45 46 47 48 
 49 50 52 53 54 55 56 57 58 59 60 61 
 62 63 64 65 66 67 68 69 70 71 72 73 
 74 75 76 77 78 79 80 81 82 83 84 85 
 86 87 88 89 90 
 2 
 59 68 
 56 
 6 8 9 10 14 15 16 18 19 20 21 22 
 23 25 26 27 30 31 33 34 38 39 40 42 
 46 47 48 49 50 51 53 55 56 59 61 62 
 63 65 67 70 71 72 73 74 75 76 78 80 
 81 82 83 84 85 87 88 89 
 82 
 1 2 3 4 5 6 7 8 10 11 12 13 
 15 16 17 18 19 20 21 22 23 24 25 26 
 27 28 29 31 32 34 35 36 38 39 40 41 
 42 43 44 45 46 47 48 49 50 51 52 54 
 55 56 57 58 59 60 61 62 63 65 66 67 
 68 69 70 71 73 74 75 76 77 78 79 80 
 81 82 83 84 85 86 87 88 89 90 
 7 
 2 25 27 28 65 73 85 
 77 
 1 2 3 4 7 8 9 10 11 12 13 14 
 15 16 17 18 20 21 22 23 25 27 29 30 
 31 32 33 34 35 36 37 38 39 40 43 44 
 45 46 47 49 50 51 52 53 54 55 56 57 
 58 59 60 61 62 63 64 65 66 67 69 70 
 71 74 75 76 77 78 79 80 81 82 83 84 
 85 86 87 88 89 
 22 
 5 9 12 19 20 21 24 30 33 40 48 53 
 57 59 60 64 66 70 79 83 85 87 
 15 
 3 10 16 19 33 46 47 60 63 64 70 74 
 75 81 90 
 84 
 1 3 4 5 6 7 8 9 10 11 13 15 
 16 17 18 19 20 21 22 23 24 25 26 27 
 28 29 30 31 32 33 34 35 36 37 39 40 
 41 42 43 44 45 46 47 48 49 50 51 52 
 53 54 55 56 57 58 59 61 62 63 64 65 
 66 67 68 69 70 71 72 74 75 76 77 78 
 79 80 81 82 83 84 85 86 87 88 89 90 
 86 
 1 2 3 4 5 6 7 8 9 10 11 12 
 13 14 15 16 17 19 20 21 22 23 24 25 
 26 27 28 29 30 31 32 33 35 36 37 38 
 39 40 41 42 43 44 45 47 48 49 50 51 
 52 53 54 55 56 57 58 59 60 61 62 63 
 64 65 66 67 68 69 70 71 72 73 74 75 
 76 77 78 79 80 81 82 83 84 85 86 87 
 88 89 
 25 
 4 13 14 17 19 21 22 23 26 28 33 35 
 36 40 51 53 57 59 61 66 69 81 83 84 
 87 
 17 
 3 11 15 19 22 24 29 36 37 39 54 57 
 58 60 68 82 90 
 86 
 1 3 4 5 6 7 8 9 10 11 12 13 
 14 15 16 17 18 19 20 21 22 23 24 25 
 27 28 29 30 31 32 33 35 36 37 38 39 
 40 41 42 43 44 45 46 47 48 49 50 51 
 52 53 54 55 56 57 58 59 60 61 62 63 
 64 65 66 67 68 69 70 71 72 73 74 75 
 76 77 78 80 81 82 83 84 85 86 87 88 
 89 90 
 18 
 2 9 10 16 31 32 34 41 42 47 51 55 
 57 58 72 79 81 89 
 77 
 1 2 3 4 5 6 7 9 10 11 12 13 
 16 18 19 20 21 22 24 26 27 28 29 31 
 32 33 34 35 36 37 38 39 40 41 44 45 
 48 49 50 51 52 53 56 57 58 59 60 61 
 62 63 64 65 66 67 68 69 70 71 72 73 
 74 75 76 77 78 79 80 81 82 83 84 85 
 86 87 88 89 90 
 59 
 5 6 8 9 11 12 14 15 16 18 19 21 
 24 26 27 29 30 31 32 33 34 35 36 37 
 39 40 41 42 44 45 46 48 49 50 51 52 
 53 58 59 60 61 62 63 64 66 69 71 72 
 74 76 78 79 83 84 85 86 87 89 90 
 14 
 2 7 14 15 19 22 44 47 48 52 57 61 
 66 75 
 18 
 1 4 22 25 26 28 31 35 37 41 45 50 
 53 56 66 70 77 88 
 28 
 5 6 8 9 11 16 25 28 29 30 32 33 
 36 40 43 44 45 46 48 51 52 66 68 81 
 83 84 87 88 
 77 
 1 2 3 4 5 6 7 8 9 10 11 12 
 14 15 18 19 20 21 22 24 25 26 27 28 
 29 31 33 34 35 36 38 39 40 41 42 43 
 44 45 46 47 49 50 51 52 53 55 56 57 
 58 59 60 61 62 63 64 65 67 68 69 70 
 71 72 73 74 75 76 78 79 80 81 84 85 
 86 87 88 89 90 
 79 
 1 2 3 4 5 7 8 9 10 11 13 14 
 15 16 17 18 19 20 21 22 24 25 26 27 
 30 31 33 34 35 36 37 38 39 40 41 42 
 43 45 46 47 48 49 50 51 52 53 54 55 
 56 57 58 59 60 61 62 63 64 65 66 67 
 68 69 70 71 72 73 74 75 76 77 78 79 
 80 81 82 85 86 88 89 
 26 
 1 3 5 11 16 24 27 30 33 34 38 40 
 44 45 46 48 49 51 55 56 63 73 74 82 
 85 90 
 55 
 1 2 3 4 6 7 8 9 12 13 16 24 
 25 26 27 30 31 32 33 34 35 36 38 39 
 40 42 43 47 48 49 50 51 52 53 54 55 
 56 57 59 60 61 62 64 67 68 69 70 73 
 74 76 79 80 81 84 88 
 36 
 1 2 3 8 9 11 12 16 19 20 21 26 
 29 30 33 34 39 40 42 43 46 54 55 57 
 61 63 68 71 76 81 83 84 85 86 89 90 
 71 
 1 2 3 5 7 8 9 10 12 14 15 16 
 18 19 20 22 23 24 25 27 28 29 31 32 
 34 36 37 38 39 40 41 42 43 44 45 46 
 48 49 50 51 52 53 55 56 57 58 59 60 
 61 62 63 64 65 66 67 68 69 70 71 72 
 73 74 76 77 78 79 80 82 85 87 90 
 77 
 1 2 4 5 6 7 8 9 10 13 14 15 
 16 17 18 19 20 21 22 23 24 25 26 27 
 29 30 31 32 33 35 36 37 38 39 40 41 
 42 44 45 46 48 49 50 51 52 53 55 56 
 57 58 59 60 61 63 64 65 67 68 69 70 
 71 73 74 75 76 77 78 79 80 81 82 83 
 84 86 87 88 90 
 55 
 1 2 4 5 7 8 10 11 12 13 16 19 
 23 24 25 28 29 30 31 34 37 39 40 41 
 43 44 45 46 49 50 51 52 53 54 55 56 
 57 60 61 62 63 65 68 69 70 72 74 75 
 76 78 79 81 83 86 89 
 24 
 3 12 18 24 26 27 28 31 32 33 36 55 
 56 57 61 71 73 74 75 76 79 85 87 88 
 20 
 3 4 14 21 22 24 35 37 39 50 52 56 
 66 71 72 74 75 78 79 82 
 36 
 4 5 7 12 14 15 19 20 21 22 27 28 
 29 30 32 33 34 38 40 41 47 50 51 53 
 55 60 61 62 63 65 66 72 78 79 84 87 
 43 
 1 4 10 11 16 18 19 21 22 27 28 29 
 31 32 33 35 37 38 39 40 46 50 51 52 
 54 55 56 59 62 63 64 65 69 72 75 76 
 79 80 84 85 86 89 90 
 54 
 1 4 6 7 8 11 12 13 14 16 18 19 
 22 24 28 29 30 32 33 34 38 40 41 42 
 44 45 46 48 50 52 53 55 56 57 58 60 
 62 63 64 66 70 72 73 74 76 77 79 80 
 81 82 87 88 89 90 
 89 
 1 2 3 4 5 6 7 8 9 10 11 12 
 13 14 15 16 18 19 20 21 22 23 24 25 
 26 27 28 29 30 31 32 33 34 35 36 37 
 38 39 40 41 42 43 44 45 46 47 48 49 
 50 51 52 53 54 55 56 57 58 59 60 61 
 62 63 64 65 66 67 68 69 70 71 72 73 
 74 75 76 77 78 79 80 81 82 83 84 85 
 86 87 88 89 90 
 11 
 8 21 26 41 46 49 58 59 61 69 88 
 33 
 1 2 3 12 15 16 17 19 21 22 24 26 
 28 33 37 46 47 48 51 52 53 55 60 64 
 68 69 71 74 76 77 78 79 83 
 35 
 1 3 6 10 11 12 14 16 19 21 22 23 
 24 26 29 30 32 36 38 39 42 47 48 57 
 59 61 62 65 70 72 73 75 79 83 88 
 72 
 1 3 4 5 6 7 8 9 10 11 12 13 
 14 15 16 17 18 19 20 22 23 24 26 28 
 29 32 33 37 38 39 40 41 44 45 47 48 
 49 50 51 52 53 55 56 57 58 59 60 61 
 62 63 64 65 66 68 69 70 71 72 74 75 
 76 77 80 81 82 84 85 86 87 88 89 90 
 75 
 1 2 4 6 7 8 11 12 13 14 15 16 
 17 18 19 21 22 23 24 25 26 28 31 33 
 34 35 36 37 38 39 40 41 42 43 44 45 
 46 47 48 50 51 52 53 54 55 56 57 58 
 59 61 62 63 64 65 67 68 69 70 71 73 
 74 75 77 78 79 80 81 82 83 84 85 87 
 88 89 90 
 74 
 1 2 3 4 5 6 7 8 9 10 11 13 
 14 16 17 18 19 20 21 22 23 24 26 27 
 28 29 30 32 33 34 35 36 37 38 39 40 
 41 42 43 45 46 48 49 50 51 52 53 54 
 55 56 58 61 62 63 64 66 67 68 69 71 
 72 73 74 75 78 79 80 81 83 84 85 86 
 88 89 
 37 
 7 8 9 11 12 13 14 19 20 21 25 29 
 31 33 38 39 40 41 44 47 56 58 63 64 
 65 66 68 69 71 73 74 77 79 85 86 88 
 90 
 74 
 2 3 4 5 6 8 10 12 14 15 16 17 
 18 19 20 22 23 24 25 26 27 28 29 30 
 32 34 35 36 38 39 40 41 42 43 44 45 
 47 48 49 51 53 54 55 56 58 59 60 61 
 62 63 65 66 67 68 69 70 71 72 73 74 
 75 77 78 79 80 81 82 83 84 85 86 87 
 88 89 
 10 
 3 4 8 17 26 48 57 66 70 77 
 